c  s526
c  24 inputs
c  27 outputs
c  52 inverters
c  141 gates ( 56 ANDs + 22 NANDs + 28 ORs + 35 NORs )
cc labels (1 G1) (2 G2) (3 G22) (4 G29) (5 G13) (6 G30) (7 G15) (8 G14) (9 G11) (10 G10) (11 G19) (12 G20) (13 G21) (14 G12) (15 G16) (16 G17) (17 G18) (18 G0) (19 G28) (20 G27) (21 G26) (22 G25) (23 G24) (24 G23) (25 G210) (26 G208) (27 I362) (28 G212) (29 G207) (30 G209) (31 G206) (32 G204) (33 G202) (34 I351) (35 G205) (36 G201) (37 G203) (38 G200) (39 G162) (40 G161) (41 G160) (42 G197) (43 G195) (44 G196) (45 G194) (46 G192) (47 G154) (48 G153) (49 G152) (50 G190) (51 G191) (52 G188) (53 G157) (54 G159) (55 G158) (56 G187) (57 G156) (58 G155) (59 G185) (60 G186) (61 G183) (62 G151) (63 G150) (64 G149) (65 G182) (66 G180) (67 G181) (68 G179) (69 G189) (70 G166) (71 G163) (72 G165) (73 G164) (74 G178) (75 G176) (76 G174) (77 G175) (78 G173) (79 G144) (80 G143) (81 G193) (82 G172) (83 G171) (84 G177) (85 G184) (86 G170) (87 G168) (88 G169) (89 G167) (90 G135) (91 G146) (92 G145) (93 G139) (94 G136) (95 G142) (96 G141) (97 G140) (98 G138) (99 G137) (100 G126) (101 G121) (102 G120) (103 G117) (104 G119) (105 G115) (106 G58) (107 G57) (108 G114) (109 G111) (110 G110) (111 G56) (112 G55) (113 G54) (114 G113) (115 G109) (116 G106) (117 G52) (118 G51) (119 G105) (120 G103) (121 G53) (122 G118) (123 G102) (124 G101) (125 G50) (126 G49) (127 G48) (128 G100) (129 G99) (130 G47) (131 G46) (132 G97) (133 G108) (134 G98) (135 G96) (136 G45) (137 G44) (138 G95) (139 G93) (140 G94) (141 G91) (142 G92) (143 G89) (144 G59) (145 G43) (146 G42) (147 G88) (148 G86) (149 G87) (150 G84) (151 G82) (152 G81) (153 G80) (154 G79) (155 G78) (156 G77) (157 G76) (158 G61) (159 G60) (160 G34) (161 G132) (162 G134) (163 G33) (164 G83) (165 G85) (166 G31) (167 G32) (168 G130) (169 G129) (170 G128) (171 G133) (172 G127) (173 G112) (174 G37) (175 G41) (176 G40) (177 G39) (178 G38) (179 G73) (180 G75) (181 G72) (182 G70) (183 G74) (184 G69) (185 G125) (186 G124) (187 G131) (188 G123) (189 G122) (190 G36) (191 G66) (192 G68) (193 G90) (194 G107) (195 G35) (196 G71) (197 G65) (198 G64) (199 G116) (200 G104) (201 G63) (202 I359) (203 G211) (204 G67) (205 G62) (206 I368) (207 G214) (208 I365) (209 G213) (210 I343) (211 G199) (212 I340) (213 G198) (214 I288) (215 G148) (216 I285) (217 G147)
cc inputs 1 2 3 4 5 6 7 8 9 10 11 12 13 14 15 16 17 18 19 20 21 22 23 24 
cc outputs 217 215 213 211 209 207 205 184 172 159 158 154 150 143 135 124 116 105 99 89 78 68 61 52 45 38 31 
p cnf 217 638
216 217 0
-216 -217 0
24 216 0
-24 -216 0
214 215 0
-214 -215 0
23 214 0
-23 -214 0
212 213 0
-212 -213 0
22 212 0
-22 -212 0
210 211 0
-210 -211 0
21 210 0
-21 -210 0
208 209 0
-208 -209 0
20 208 0
-20 -208 0
206 207 0
-206 -207 0
19 206 0
-19 -206 0
-205 -204 -192 0
205 204 0
205 192 0
-204 203 201 198 196 0
204 -203 0
204 -201 0
204 -198 0
204 -196 0
202 203 0
-202 -203 0
18 202 0
-18 -202 0
-201 -200 -199 -15 0
201 200 0
201 199 0
201 15 0
17 200 0
-17 -200 0
16 199 0
-16 -199 0
-198 -197 -13 -12 -11 0
198 197 0
198 13 0
198 12 0
198 11 0
14 197 0
-14 -197 0
196 195 6 0
-196 -195 0
-196 -6 0
195 -10 -194 -193 -7 0
-195 10 0
-195 194 0
-195 193 0
-195 7 0
9 194 0
-9 -194 0
8 193 0
-8 -193 0
-192 197 203 191 0
192 -197 0
192 -203 0
192 -191 0
191 190 187 186 185 0
-191 -190 0
-191 -187 0
-191 -186 0
-191 -185 0
190 -189 -188 0
-190 189 0
-190 188 0
6 189 0
-6 -189 0
-188 -7 -193 -194 -10 0
188 7 0
188 193 0
188 194 0
188 10 0
13 187 0
-13 -187 0
12 186 0
-12 -186 0
-185 -11 -200 -199 -15 0
185 11 0
185 200 0
185 199 0
185 15 0
-184 -183 -180 0
184 183 0
184 180 0
-183 203 185 182 196 0
183 -203 0
183 -185 0
183 -182 0
183 -196 0
-182 -181 -14 -13 -12 0
182 181 0
182 14 0
182 13 0
182 12 0
5 181 0
-5 -181 0
-180 181 203 179 0
180 -181 0
180 -203 0
180 -179 0
179 178 177 176 175 0
-179 -178 0
-179 -177 0
-179 -176 0
-179 -175 0
178 -189 -188 0
-178 189 0
-178 188 0
177 -197 -13 0
-177 197 0
-177 13 0
176 -14 -187 0
-176 14 0
-176 187 0
-175 -200 -199 -15 -174 0
175 200 0
175 199 0
175 15 0
175 174 0
174 186 173 0
-174 -186 0
-174 -173 0
11 173 0
-11 -173 0
-172 -171 -162 0
172 171 0
172 162 0
-171 203 170 169 168 0
171 -203 0
171 -170 0
171 -169 0
171 -168 0
-170 -199 -15 0
170 199 0
170 15 0
-169 -187 -12 -11 -200 0
169 187 0
169 12 0
169 11 0
169 200 0
-168 -167 -163 0
168 167 0
168 163 0
-167 6 166 0
167 -6 0
167 -166 0
166 165 8 9 164 0
-166 -165 0
-166 -8 0
-166 -9 0
-166 -164 0
7 165 0
-7 -165 0
10 164 0
-10 -164 0
-163 181 14 0
163 -181 0
163 -14 0
-162 187 203 161 0
162 -187 0
162 -203 0
162 -161 0
161 160 186 185 0
-161 -160 0
-161 -186 0
-161 -185 0
160 -189 -188 0
-160 189 0
-160 188 0
159 10 203 0
-159 -10 0
-159 -203 0
158 157 156 155 203 0
-158 -157 0
-158 -156 0
-158 -155 0
-158 -203 0
157 -10 -193 -7 0
-157 10 0
-157 193 0
-157 7 0
156 -10 -9 0
-156 10 0
-156 9 0
155 -164 -194 0
-155 164 0
-155 194 0
154 153 152 151 203 0
-154 -153 0
-154 -152 0
-154 -151 0
-154 -203 0
153 -10 -9 -8 0
-153 10 0
-153 9 0
-153 8 0
152 -164 -193 0
-152 164 0
-152 193 0
151 -194 -193 0
-151 194 0
-151 193 0
150 149 147 0
-150 -149 0
-150 -147 0
149 -165 -148 0
-149 165 0
-149 148 0
-148 -8 -9 -10 0
148 8 0
148 9 0
148 10 0
-147 -146 -145 -144 0
147 146 0
147 145 0
147 144 0
-146 164 194 193 165 0
146 -164 0
146 -194 0
146 -193 0
146 -165 0
-145 164 9 8 0
145 -164 0
145 -9 0
145 -8 0
203 144 0
-203 -144 0
143 142 139 138 0
-143 -142 0
-143 -139 0
-143 -138 0
142 -193 -194 -10 -141 0
-142 193 0
-142 194 0
-142 10 0
-142 141 0
141 140 165 0
-141 -140 0
-141 -165 0
15 140 0
-15 -140 0
139 -140 -189 -188 0
-139 140 0
-139 189 0
-139 188 0
138 137 136 0
-138 -137 0
-138 -136 0
137 -144 -140 0
-137 144 0
-137 140 0
136 -189 -144 0
-136 189 0
-136 144 0
135 134 129 128 0
-135 -134 0
-135 -129 0
-135 -128 0
134 -194 -10 -133 -132 0
-134 194 0
-134 10 0
-134 133 0
-134 132 0
133 140 165 8 0
-133 -140 0
-133 -165 0
-133 -8 0
132 131 130 0
-132 -131 0
-132 -130 0
131 -199 -173 0
-131 199 0
-131 173 0
130 -199 -17 0
-130 199 0
-130 17 0
129 -199 -189 -188 0
-129 199 0
-129 189 0
-129 188 0
-128 -127 -126 -125 -144 0
128 127 0
128 126 0
128 125 0
128 144 0
-127 189 140 17 173 0
127 -189 0
127 -140 0
127 -17 0
127 -173 0
-126 189 140 199 0
126 -189 0
126 -140 0
126 -199 0
-125 15 16 0
125 -15 0
125 -16 0
124 123 120 119 0
-124 -123 0
-124 -120 0
-124 -119 0
123 -17 -16 -15 -122 0
-123 17 0
-123 16 0
-123 15 0
-123 122 0
-122 -121 -189 0
122 121 0
122 189 0
-121 164 9 8 165 0
121 -164 0
121 -9 0
121 -8 0
121 -165 0
120 -200 -189 -188 0
-120 200 0
-120 189 0
-120 188 0
119 118 117 0
-119 -118 0
-119 -117 0
118 -144 -15 -16 0
-118 144 0
-118 15 0
-118 16 0
117 -144 -17 0
-117 144 0
-117 17 0
116 115 110 109 108 0
-116 -115 0
-116 -110 0
-116 -109 0
-116 -108 0
115 -194 -10 -133 -114 0
-115 194 0
-115 10 0
-115 133 0
-115 114 0
114 113 112 111 0
-114 -113 0
-114 -112 0
-114 -111 0
113 -16 -200 0
-113 16 0
-113 200 0
112 -199 -17 0
-112 199 0
-112 17 0
111 -16 -173 0
-111 16 0
-111 173 0
110 -173 -189 -188 0
-110 173 0
-110 189 0
-110 188 0
109 -15 -6 -114 0
-109 15 0
-109 6 0
-109 114 0
108 107 106 0
-108 -107 0
-108 -106 0
107 -144 -15 -16 -17 0
-107 144 0
-107 15 0
-107 16 0
-107 17 0
106 -144 -11 0
-106 144 0
-106 11 0
105 104 102 101 100 0
-105 -104 0
-105 -102 0
-105 -101 0
-105 -100 0
104 -199 -15 -103 -122 0
-104 199 0
-104 15 0
-104 103 0
-104 122 0
103 186 173 17 0
-103 -186 0
-103 -173 0
-103 -17 0
102 -186 -189 -188 0
-102 186 0
-102 189 0
-102 188 0
101 -186 -185 0
-101 186 0
-101 185 0
144 100 0
-144 -100 0
99 98 93 203 0
-99 -98 0
-99 -93 0
-99 -203 0
98 -97 -12 -96 -95 0
-98 97 0
-98 12 0
-98 96 0
-98 95 0
13 97 0
-13 -97 0
4 96 0
-4 -96 0
95 5 94 0
-95 -5 0
-95 -94 0
14 94 0
-14 -94 0
93 -92 -91 0
-93 92 0
-93 91 0
3 92 0
-3 -92 0
-91 -97 -90 -4 -95 0
91 97 0
91 90 0
91 4 0
91 95 0
12 90 0
-12 -90 0
89 88 86 83 81 0
-89 -88 0
-89 -86 0
-89 -83 0
-89 -81 0
88 -5 -87 0
-88 5 0
-88 87 0
24 87 0
-24 -87 0
86 -85 -84 0
-86 85 0
-86 84 0
14 85 0
-14 -85 0
5 84 0
-5 -84 0
83 -82 -85 0
-83 82 0
-83 85 0
13 82 0
-13 -82 0
81 80 79 0
-81 -80 0
-81 -79 0
80 -97 -12 -96 -95 0
-80 97 0
-80 12 0
-80 96 0
-80 95 0
79 -92 -91 0
-79 92 0
-79 91 0
78 77 75 74 0
-78 -77 0
-78 -75 0
-78 -74 0
77 -76 -14 0
-77 76 0
-77 14 0
23 76 0
-23 -76 0
75 -84 -14 0
-75 84 0
-75 14 0
-74 -73 -72 -70 -69 0
74 73 0
74 72 0
74 70 0
74 69 0
-73 12 13 14 84 0
73 -12 0
73 -13 0
73 -14 0
73 -84 0
-72 71 82 5 0
72 -71 0
72 -82 0
72 -5 0
12 71 0
-12 -71 0
-70 82 84 23 0
70 -82 0
70 -84 0
70 -23 0
81 69 0
-81 -69 0
68 67 65 0
-68 -67 0
-68 -65 0
67 -66 -5 -13 0
-67 66 0
-67 5 0
-67 13 0
22 66 0
-22 -66 0
-65 -64 -63 -62 -69 0
65 64 0
65 63 0
65 62 0
65 69 0
-64 12 13 14 84 0
64 -12 0
64 -13 0
64 -14 0
64 -84 0
-63 85 22 0
63 -85 0
63 -22 0
-62 85 5 0
62 -85 0
62 -5 0
61 60 56 0
-61 -60 0
-61 -56 0
60 -85 -69 -59 0
-60 85 0
-60 69 0
-60 59 0
59 58 57 0
-59 -58 0
-59 -57 0
58 -13 -5 -21 0
-58 13 0
-58 5 0
-58 21 0
57 -71 -82 -5 0
-57 71 0
-57 82 0
-57 5 0
-56 -55 -54 0
56 55 0
56 54 0
-55 81 85 84 21 0
55 -81 0
55 -85 0
55 -84 0
55 -21 0
-54 69 53 0
54 -69 0
54 -53 0
17 53 0
-17 -53 0
52 51 46 0
-52 -51 0
-52 -46 0
51 -69 -50 0
-51 69 0
-51 50 0
-50 -49 -48 -47 -5 0
50 49 0
50 48 0
50 47 0
50 5 0
-49 71 13 14 0
49 -71 0
49 -13 0
49 -14 0
-48 82 20 0
48 -82 0
48 -20 0
-47 85 20 0
47 -85 0
47 -20 0
46 -17 -81 0
-46 17 0
-46 81 0
45 44 42 0
-45 -44 0
-45 -42 0
44 -43 -5 0
-44 43 0
-44 5 0
19 43 0
-19 -43 0
-42 -41 -40 -39 -69 0
42 41 0
42 40 0
42 39 0
42 69 0
-41 85 5 0
41 -85 0
41 -5 0
-40 12 5 0
40 -12 0
40 -5 0
-39 13 14 0
39 -13 0
39 -14 0
38 37 32 203 0
-38 -37 0
-38 -32 0
-38 -203 0
37 -36 -33 0
-37 36 0
-37 33 0
35 36 0
-35 -36 0
34 35 0
-34 -35 0
2 34 0
-2 -34 0
4 33 0
-4 -33 0
32 -35 -4 0
-32 35 0
-32 4 0
31 30 25 203 0
-31 -30 0
-31 -25 0
-31 -203 0
30 -29 -26 0
-30 29 0
-30 26 0
28 29 0
-28 -29 0
27 28 0
-27 -28 0
1 27 0
-1 -27 0
6 26 0
-6 -26 0
25 -28 -6 0
-25 28 0
-25 6 0
%
0